4658.23 0
93 81 91 24 33 57 95 54 27 85 17 36 51 71 78 90 64 80 65 79 14 19 82 23 58 26 61 0 66 15 47 29 75 1 59 97 87 4 2 20 46 16 30 32 12 55 25 6 7 88 37 48 41 92 5 99 60 63 28 39 8 74 49 11 56 83 52 84 10 40 67 22 76 96 86 31 35 42 89 62 69 70 73 13 68 98 53 43 9 34 72 18 45 77 3 50 21 44 38 94 
